97 138 99 77 127 151 70 23 96 74 39 128 
62 177 31 101 
14 120 168 78 34 98 38 90 174 114 87 134 123 26 156 
106 12 22 110 56 4 43 33 72 157 150 64 195 66 154 
30 20 198 45 37 175 167 153 41 117 160 158 143 124 
196 21 169 48 76 183 29 129 190 105 
85 71 19 178 189 102 32 88 112 152 60 149 164 
137 25 5 18 122 171 139 172 182 133 75 
81 67 9 65 57 173 144 108 69 53 
155 83 10 35 142 136 82 147 55 80 130 36 
184 176 148 1 84 100 159 40 2 8 51 
73 145 92 126 28 113 7 11 49 
185 115 187 121 194 59 107 141 91 44 79 
86 68 27 109 46 186 179 47 13 
140 146 16 163 95 58 94 89 104 161 192 
132 15 166 50 61 116 42 17 103 165 
63 135 193 125 54 118 111 24 52 
93 199 188 180 131 200 119 197 
3 6 191 
162 170 
181 

